<instance format="XCSP3" type="COP">
  <variables>
    <var id="x" note="x is the number of unused bins"> 0..24 </var>
    <array id="b" note="b[i][j] indicates the weight of the jth object put in the ith bin. It is 0 if there is no object at this place." size="[24][3]"> 0 250..252 254 257..260 262 264 266 269 270 272..274 277..279 281 282 300 303 309 311 327 334 336 340 353 360 361 365..367 389 399 400 412 415 429 448 450 460 464 470 474 484 491 492 </array>
  </variables>
  <constraints>
    <group>
      <mdd>
        <list> %... </list>
        <transitions> (root,0,n3)(root,250,n3)(root,251,n5)(root,252,n7)(root,254,n9)(root,257,n11)(root,258,n13)(root,259,n15)(root,260,n16)(root,262,n19)(root,264,n21)(root,266,n22)(root,269,n24)(root,270,n26)(root,272,n29)(root,273,n31)(root,274,n32)(root,277,n34)(root,278,n36)(root,279,n38)(root,281,n40)(root,282,n42)(root,300,n45)(root,303,n47)(root,309,n48)(root,311,n50)(root,327,n53)(root,334,n55)(root,336,n56)(root,340,n58)(root,353,n59)(root,360,n60)(root,361,n61)(root,365,n62)(root,366,n63)(root,367,n64)(root,389,n65)(root,399,n66)(root,400,n67)(root,412,n68)(root,415,n69)(root,429,n70)(root,448,n71)(root,450,n72)(root,460,n73)(root,464,n74)(root,470,n75)(root,474,n76)(root,484,n77)(root,491,n78)(root,492,n79)(n3,0,n4)(n4,0,nodeT)(n5,0,n4)(n5,250,n4)(n5,251,n6)(n6,0,nodeT)(n6,250,nodeT)(n7,0,n4)(n7,250,n4)(n7,251,n8)(n8,0,nodeT)(n8,250,nodeT)(n8,251,nodeT)(n9,0,n4)(n9,250,n4)(n9,251,n8)(n9,252,n8)(n9,254,n10)(n10,0,nodeT)(n10,250,nodeT)(n10,251,nodeT)(n10,252,nodeT)(n11,0,n4)(n11,250,n4)(n11,251,n8)(n11,252,n8)(n11,254,n12)(n11,257,n12)(n12,0,nodeT)(n12,250,nodeT)(n12,251,nodeT)(n12,252,nodeT)(n12,254,nodeT)(n13,0,n4)(n13,250,n4)(n13,251,n8)(n13,252,n8)(n13,254,n12)(n13,257,n14)(n14,0,nodeT)(n14,250,nodeT)(n14,251,nodeT)(n14,252,nodeT)(n14,254,nodeT)(n14,257,nodeT)(n15,0,n4)(n15,250,n4)(n15,251,n8)(n15,252,n8)(n15,254,n12)(n15,257,n14)(n15,258,n14)(n16,0,n4)(n16,250,n4)(n16,251,n8)(n16,252,n8)(n16,254,n12)(n16,257,n14)(n16,258,n14)(n16,259,n17)(n16,260,n18)(n17,0,nodeT)(n17,250,nodeT)(n17,251,nodeT)(n17,252,nodeT)(n17,254,nodeT)(n17,257,nodeT)(n17,258,nodeT)(n18,0,nodeT)(n18,250,nodeT)(n18,251,nodeT)(n18,252,nodeT)(n18,254,nodeT)(n18,257,nodeT)(n18,258,nodeT)(n18,259,nodeT)(n19,0,n4)(n19,250,n4)(n19,251,n8)(n19,252,n8)(n19,254,n12)(n19,257,n14)(n19,258,n14)(n19,259,n17)(n19,260,n20)(n20,0,nodeT)(n20,250,nodeT)(n20,251,nodeT)(n20,252,nodeT)(n20,254,nodeT)(n20,257,nodeT)(n20,258,nodeT)(n20,259,nodeT)(n20,260,nodeT)(n21,0,n4)(n21,250,n4)(n21,251,n8)(n21,252,n8)(n21,254,n12)(n21,257,n14)(n21,258,n14)(n21,259,n17)(n21,260,n20)(n21,262,n20)(n22,0,n4)(n22,250,n4)(n22,251,n8)(n22,252,n8)(n22,254,n12)(n22,257,n14)(n22,258,n14)(n22,259,n17)(n22,260,n20)(n22,262,n20)(n22,264,n23)(n23,0,nodeT)(n23,250,nodeT)(n23,251,nodeT)(n23,252,nodeT)(n23,254,nodeT)(n23,257,nodeT)(n23,258,nodeT)(n23,259,nodeT)(n23,260,nodeT)(n23,262,nodeT)(n24,0,n4)(n24,250,n4)(n24,251,n8)(n24,252,n8)(n24,254,n12)(n24,257,n14)(n24,258,n14)(n24,259,n17)(n24,260,n20)(n24,262,n20)(n24,264,n23)(n24,266,n25)(n25,0,nodeT)(n25,250,nodeT)(n25,251,nodeT)(n25,252,nodeT)(n25,254,nodeT)(n25,257,nodeT)(n25,258,nodeT)(n25,259,nodeT)(n25,260,nodeT)(n25,262,nodeT)(n25,264,nodeT)(n26,0,n4)(n26,250,n4)(n26,251,n8)(n26,252,n8)(n26,254,n12)(n26,257,n14)(n26,258,n14)(n26,259,n17)(n26,260,n20)(n26,262,n20)(n26,264,n23)(n26,266,n25)(n26,269,n27)(n26,270,n28)(n27,0,nodeT)(n27,250,nodeT)(n27,251,nodeT)(n27,252,nodeT)(n27,254,nodeT)(n27,257,nodeT)(n27,258,nodeT)(n27,259,nodeT)(n27,260,nodeT)(n27,262,nodeT)(n27,264,nodeT)(n27,266,nodeT)(n28,0,nodeT)(n28,250,nodeT)(n28,251,nodeT)(n28,252,nodeT)(n28,254,nodeT)(n28,257,nodeT)(n28,258,nodeT)(n28,259,nodeT)(n28,260,nodeT)(n28,262,nodeT)(n28,264,nodeT)(n28,266,nodeT)(n28,269,nodeT)(n29,0,n4)(n29,250,n4)(n29,251,n8)(n29,252,n8)(n29,254,n12)(n29,257,n14)(n29,258,n14)(n29,259,n17)(n29,260,n20)(n29,262,n20)(n29,264,n23)(n29,266,n25)(n29,269,n27)(n29,270,n30)(n30,0,nodeT)(n30,250,nodeT)(n30,251,nodeT)(n30,252,nodeT)(n30,254,nodeT)(n30,257,nodeT)(n30,258,nodeT)(n30,259,nodeT)(n30,260,nodeT)(n30,262,nodeT)(n30,264,nodeT)(n30,266,nodeT)(n30,269,nodeT)(n30,270,nodeT)(n31,0,n4)(n31,250,n4)(n31,251,n8)(n31,252,n8)(n31,254,n12)(n31,257,n14)(n31,258,n14)(n31,259,n17)(n31,260,n20)(n31,262,n20)(n31,264,n23)(n31,266,n25)(n31,269,n27)(n31,270,n30)(n31,272,n30)(n32,0,n4)(n32,250,n4)(n32,251,n8)(n32,252,n8)(n32,254,n12)(n32,257,n14)(n32,258,n14)(n32,259,n17)(n32,260,n20)(n32,262,n20)(n32,264,n23)(n32,266,n25)(n32,269,n27)(n32,270,n30)(n32,272,n30)(n32,273,n33)(n33,0,nodeT)(n33,250,nodeT)(n33,251,nodeT)(n33,252,nodeT)(n33,254,nodeT)(n33,257,nodeT)(n33,258,nodeT)(n33,259,nodeT)(n33,260,nodeT)(n33,262,nodeT)(n33,264,nodeT)(n33,266,nodeT)(n33,269,nodeT)(n33,270,nodeT)(n33,272,nodeT)(n34,0,n4)(n34,250,n4)(n34,251,n8)(n34,252,n8)(n34,254,n12)(n34,257,n14)(n34,258,n14)(n34,259,n17)(n34,260,n20)(n34,262,n20)(n34,264,n23)(n34,266,n25)(n34,269,n27)(n34,270,n30)(n34,272,n30)(n34,273,n33)(n34,274,n35)(n35,0,nodeT)(n35,250,nodeT)(n35,251,nodeT)(n35,252,nodeT)(n35,254,nodeT)(n35,257,nodeT)(n35,258,nodeT)(n35,259,nodeT)(n35,260,nodeT)(n35,262,nodeT)(n35,264,nodeT)(n35,266,nodeT)(n35,269,nodeT)(n35,270,nodeT)(n35,272,nodeT)(n35,273,nodeT)(n36,0,n4)(n36,250,n4)(n36,251,n8)(n36,252,n8)(n36,254,n12)(n36,257,n14)(n36,258,n14)(n36,259,n17)(n36,260,n20)(n36,262,n20)(n36,264,n23)(n36,266,n25)(n36,269,n27)(n36,270,n30)(n36,272,n30)(n36,273,n33)(n36,274,n35)(n36,277,n37)(n37,0,nodeT)(n37,250,nodeT)(n37,251,nodeT)(n37,252,nodeT)(n37,254,nodeT)(n37,257,nodeT)(n37,258,nodeT)(n37,259,nodeT)(n37,260,nodeT)(n37,262,nodeT)(n37,264,nodeT)(n37,266,nodeT)(n37,269,nodeT)(n37,270,nodeT)(n37,272,nodeT)(n37,273,nodeT)(n37,274,nodeT)(n38,0,n4)(n38,250,n4)(n38,251,n8)(n38,252,n8)(n38,254,n12)(n38,257,n14)(n38,258,n14)(n38,259,n17)(n38,260,n20)(n38,262,n20)(n38,264,n23)(n38,266,n25)(n38,269,n27)(n38,270,n30)(n38,272,n30)(n38,273,n33)(n38,274,n35)(n38,277,n37)(n38,278,n39)(n39,0,nodeT)(n39,250,nodeT)(n39,251,nodeT)(n39,252,nodeT)(n39,254,nodeT)(n39,257,nodeT)(n39,258,nodeT)(n39,259,nodeT)(n39,260,nodeT)(n39,262,nodeT)(n39,264,nodeT)(n39,266,nodeT)(n39,269,nodeT)(n39,270,nodeT)(n39,272,nodeT)(n39,273,nodeT)(n39,274,nodeT)(n39,277,nodeT)(n40,0,n4)(n40,250,n4)(n40,251,n8)(n40,252,n8)(n40,254,n12)(n40,257,n14)(n40,258,n14)(n40,259,n17)(n40,260,n20)(n40,262,n20)(n40,264,n23)(n40,266,n25)(n40,269,n27)(n40,270,n30)(n40,272,n30)(n40,273,n33)(n40,274,n35)(n40,277,n37)(n40,278,n39)(n40,279,n41)(n41,0,nodeT)(n41,250,nodeT)(n41,251,nodeT)(n41,252,nodeT)(n41,254,nodeT)(n41,257,nodeT)(n41,258,nodeT)(n41,259,nodeT)(n41,260,nodeT)(n41,262,nodeT)(n41,264,nodeT)(n41,266,nodeT)(n41,269,nodeT)(n41,270,nodeT)(n41,272,nodeT)(n41,273,nodeT)(n41,274,nodeT)(n41,277,nodeT)(n41,278,nodeT)(n42,0,n4)(n42,250,n4)(n42,251,n8)(n42,252,n8)(n42,254,n12)(n42,257,n14)(n42,258,n14)(n42,259,n17)(n42,260,n20)(n42,262,n20)(n42,264,n23)(n42,266,n25)(n42,269,n27)(n42,270,n30)(n42,272,n30)(n42,273,n33)(n42,274,n35)(n42,277,n37)(n42,278,n39)(n42,279,n41)(n42,281,n43)(n42,282,n44)(n43,0,nodeT)(n43,250,nodeT)(n43,251,nodeT)(n43,252,nodeT)(n43,254,nodeT)(n43,257,nodeT)(n43,258,nodeT)(n43,259,nodeT)(n43,260,nodeT)(n43,262,nodeT)(n43,264,nodeT)(n43,266,nodeT)(n43,269,nodeT)(n43,270,nodeT)(n43,272,nodeT)(n43,273,nodeT)(n43,274,nodeT)(n43,277,nodeT)(n43,278,nodeT)(n43,279,nodeT)(n44,0,nodeT)(n44,250,nodeT)(n44,251,nodeT)(n44,252,nodeT)(n44,254,nodeT)(n44,257,nodeT)(n44,258,nodeT)(n44,259,nodeT)(n44,260,nodeT)(n44,262,nodeT)(n44,264,nodeT)(n44,266,nodeT)(n44,269,nodeT)(n44,270,nodeT)(n44,272,nodeT)(n44,273,nodeT)(n44,274,nodeT)(n44,277,nodeT)(n44,278,nodeT)(n44,279,nodeT)(n44,281,nodeT)(n45,0,n4)(n45,250,n4)(n45,251,n8)(n45,252,n8)(n45,254,n12)(n45,257,n14)(n45,258,n14)(n45,259,n17)(n45,260,n20)(n45,262,n20)(n45,264,n23)(n45,266,n25)(n45,269,n27)(n45,270,n30)(n45,272,n30)(n45,273,n33)(n45,274,n35)(n45,277,n37)(n45,278,n39)(n45,279,n41)(n45,281,n43)(n45,282,n46)(n46,0,nodeT)(n46,250,nodeT)(n46,251,nodeT)(n46,252,nodeT)(n46,254,nodeT)(n46,257,nodeT)(n46,258,nodeT)(n46,259,nodeT)(n46,260,nodeT)(n46,262,nodeT)(n46,264,nodeT)(n46,266,nodeT)(n46,269,nodeT)(n46,270,nodeT)(n46,272,nodeT)(n46,273,nodeT)(n46,274,nodeT)(n46,277,nodeT)(n46,278,nodeT)(n46,279,nodeT)(n46,281,nodeT)(n46,282,nodeT)(n47,0,n4)(n47,250,n4)(n47,251,n8)(n47,252,n8)(n47,254,n12)(n47,257,n14)(n47,258,n14)(n47,259,n17)(n47,260,n20)(n47,262,n20)(n47,264,n23)(n47,266,n25)(n47,269,n27)(n47,270,n30)(n47,272,n30)(n47,273,n33)(n47,274,n35)(n47,277,n37)(n47,278,n39)(n47,279,n41)(n47,281,n43)(n47,282,n46)(n47,300,n46)(n48,0,n4)(n48,250,n4)(n48,251,n8)(n48,252,n8)(n48,254,n12)(n48,257,n14)(n48,258,n14)(n48,259,n17)(n48,260,n20)(n48,262,n20)(n48,264,n23)(n48,266,n25)(n48,269,n27)(n48,270,n30)(n48,272,n30)(n48,273,n33)(n48,274,n35)(n48,277,n37)(n48,278,n39)(n48,279,n41)(n48,281,n43)(n48,282,n46)(n48,300,n46)(n48,303,n49)(n49,0,nodeT)(n49,250,nodeT)(n49,251,nodeT)(n49,252,nodeT)(n49,254,nodeT)(n49,257,nodeT)(n49,258,nodeT)(n49,259,nodeT)(n49,260,nodeT)(n49,262,nodeT)(n49,264,nodeT)(n49,266,nodeT)(n49,269,nodeT)(n49,270,nodeT)(n49,272,nodeT)(n49,273,nodeT)(n49,274,nodeT)(n49,277,nodeT)(n49,278,nodeT)(n49,279,nodeT)(n49,281,nodeT)(n49,282,nodeT)(n49,300,nodeT)(n50,0,n4)(n50,250,n4)(n50,251,n8)(n50,252,n8)(n50,254,n12)(n50,257,n14)(n50,258,n14)(n50,259,n17)(n50,260,n20)(n50,262,n20)(n50,264,n23)(n50,266,n25)(n50,269,n27)(n50,270,n30)(n50,272,n30)(n50,273,n33)(n50,274,n35)(n50,277,n37)(n50,278,n39)(n50,279,n41)(n50,281,n43)(n50,282,n46)(n50,300,n46)(n50,303,n49)(n50,309,n51)(n50,311,n52)(n51,0,nodeT)(n51,250,nodeT)(n51,251,nodeT)(n51,252,nodeT)(n51,254,nodeT)(n51,257,nodeT)(n51,258,nodeT)(n51,259,nodeT)(n51,260,nodeT)(n51,262,nodeT)(n51,264,nodeT)(n51,266,nodeT)(n51,269,nodeT)(n51,270,nodeT)(n51,272,nodeT)(n51,273,nodeT)(n51,274,nodeT)(n51,277,nodeT)(n51,278,nodeT)(n51,279,nodeT)(n51,281,nodeT)(n51,282,nodeT)(n51,300,nodeT)(n51,303,nodeT)(n52,0,nodeT)(n52,250,nodeT)(n52,251,nodeT)(n52,252,nodeT)(n52,254,nodeT)(n52,257,nodeT)(n52,258,nodeT)(n52,259,nodeT)(n52,260,nodeT)(n52,262,nodeT)(n52,264,nodeT)(n52,266,nodeT)(n52,269,nodeT)(n52,270,nodeT)(n52,272,nodeT)(n52,273,nodeT)(n52,274,nodeT)(n52,277,nodeT)(n52,278,nodeT)(n52,279,nodeT)(n52,281,nodeT)(n52,282,nodeT)(n52,300,nodeT)(n52,303,nodeT)(n52,309,nodeT)(n53,0,n4)(n53,250,n4)(n53,251,n8)(n53,252,n8)(n53,254,n12)(n53,257,n14)(n53,258,n14)(n53,259,n17)(n53,260,n20)(n53,262,n20)(n53,264,n23)(n53,266,n25)(n53,269,n27)(n53,270,n30)(n53,272,n30)(n53,273,n33)(n53,274,n35)(n53,277,n37)(n53,278,n39)(n53,279,n41)(n53,281,n43)(n53,282,n46)(n53,300,n46)(n53,303,n49)(n53,309,n51)(n53,311,n54)(n54,0,nodeT)(n54,250,nodeT)(n54,251,nodeT)(n54,252,nodeT)(n54,254,nodeT)(n54,257,nodeT)(n54,258,nodeT)(n54,259,nodeT)(n54,260,nodeT)(n54,262,nodeT)(n54,264,nodeT)(n54,266,nodeT)(n54,269,nodeT)(n54,270,nodeT)(n54,272,nodeT)(n54,273,nodeT)(n54,274,nodeT)(n54,277,nodeT)(n54,278,nodeT)(n54,279,nodeT)(n54,281,nodeT)(n54,282,nodeT)(n54,300,nodeT)(n54,303,nodeT)(n54,309,nodeT)(n54,311,nodeT)(n55,0,n4)(n55,250,n4)(n55,251,n8)(n55,252,n8)(n55,254,n12)(n55,257,n14)(n55,258,n14)(n55,259,n17)(n55,260,n20)(n55,262,n20)(n55,264,n23)(n55,266,n25)(n55,269,n27)(n55,270,n30)(n55,272,n30)(n55,273,n33)(n55,274,n35)(n55,277,n37)(n55,278,n39)(n55,279,n41)(n55,281,n43)(n55,282,n46)(n55,300,n46)(n55,303,n49)(n55,309,n51)(n55,311,n54)(n55,327,n54)(n56,0,n4)(n56,250,n4)(n56,251,n8)(n56,252,n8)(n56,254,n12)(n56,257,n14)(n56,258,n14)(n56,259,n17)(n56,260,n20)(n56,262,n20)(n56,264,n23)(n56,266,n25)(n56,269,n27)(n56,270,n30)(n56,272,n30)(n56,273,n33)(n56,274,n35)(n56,277,n37)(n56,278,n39)(n56,279,n41)(n56,281,n43)(n56,282,n46)(n56,300,n46)(n56,303,n49)(n56,309,n51)(n56,311,n54)(n56,327,n54)(n56,334,n57)(n56,336,n57)(n57,0,nodeT)(n57,250,nodeT)(n57,251,nodeT)(n57,252,nodeT)(n57,254,nodeT)(n57,257,nodeT)(n57,258,nodeT)(n57,259,nodeT)(n57,260,nodeT)(n57,262,nodeT)(n57,264,nodeT)(n57,266,nodeT)(n57,269,nodeT)(n57,270,nodeT)(n57,272,nodeT)(n57,273,nodeT)(n57,274,nodeT)(n57,277,nodeT)(n57,278,nodeT)(n57,279,nodeT)(n57,281,nodeT)(n57,282,nodeT)(n57,300,nodeT)(n57,303,nodeT)(n57,309,nodeT)(n57,311,nodeT)(n57,327,nodeT)(n58,0,n4)(n58,250,n4)(n58,251,n8)(n58,252,n8)(n58,254,n12)(n58,257,n14)(n58,258,n14)(n58,259,n17)(n58,260,n20)(n58,262,n20)(n58,264,n23)(n58,266,n25)(n58,269,n27)(n58,270,n30)(n58,272,n30)(n58,273,n33)(n58,274,n35)(n58,277,n37)(n58,278,n39)(n58,279,n41)(n58,281,n43)(n58,282,n46)(n58,300,n46)(n58,303,n49)(n58,309,n51)(n58,311,n54)(n58,327,n54)(n58,334,n54)(n58,336,n54)(n59,0,n4)(n59,250,n4)(n59,251,n8)(n59,252,n8)(n59,254,n12)(n59,257,n14)(n59,258,n14)(n59,259,n17)(n59,260,n20)(n59,262,n20)(n59,264,n23)(n59,266,n25)(n59,269,n27)(n59,270,n30)(n59,272,n30)(n59,273,n33)(n59,274,n35)(n59,277,n37)(n59,278,n39)(n59,279,n41)(n59,281,n43)(n59,282,n46)(n59,300,n46)(n59,303,n49)(n59,309,n51)(n59,311,n54)(n59,327,n54)(n59,334,n54)(n59,336,n54)(n59,340,n51)(n60,0,n4)(n60,250,n4)(n60,251,n8)(n60,252,n8)(n60,254,n12)(n60,257,n14)(n60,258,n14)(n60,259,n17)(n60,260,n20)(n60,262,n20)(n60,264,n23)(n60,266,n25)(n60,269,n27)(n60,270,n30)(n60,272,n30)(n60,273,n33)(n60,274,n35)(n60,277,n37)(n60,278,n39)(n60,279,n41)(n60,281,n43)(n60,282,n46)(n60,300,n46)(n60,303,n49)(n60,309,n51)(n60,311,n54)(n60,327,n54)(n60,334,n51)(n60,336,n51)(n60,340,n49)(n60,353,n46)(n61,0,n4)(n61,250,n4)(n61,251,n8)(n61,252,n8)(n61,254,n12)(n61,257,n14)(n61,258,n14)(n61,259,n17)(n61,260,n20)(n61,262,n20)(n61,264,n23)(n61,266,n25)(n61,269,n27)(n61,270,n30)(n61,272,n30)(n61,273,n33)(n61,274,n35)(n61,277,n37)(n61,278,n39)(n61,279,n41)(n61,281,n43)(n61,282,n46)(n61,300,n46)(n61,303,n49)(n61,309,n51)(n61,311,n54)(n61,327,n54)(n61,334,n51)(n61,336,n51)(n61,340,n46)(n61,353,n46)(n61,360,n43)(n62,0,n4)(n62,250,n4)(n62,251,n8)(n62,252,n8)(n62,254,n12)(n62,257,n14)(n62,258,n14)(n62,259,n17)(n62,260,n20)(n62,262,n20)(n62,264,n23)(n62,266,n25)(n62,269,n27)(n62,270,n30)(n62,272,n30)(n62,273,n33)(n62,274,n35)(n62,277,n37)(n62,278,n39)(n62,279,n41)(n62,281,n43)(n62,282,n46)(n62,300,n46)(n62,303,n49)(n62,309,n51)(n62,311,n54)(n62,327,n51)(n62,334,n49)(n62,336,n46)(n62,340,n46)(n62,353,n46)(n62,360,n37)(n62,361,n37)(n63,0,n4)(n63,250,n4)(n63,251,n8)(n63,252,n8)(n63,254,n12)(n63,257,n14)(n63,258,n14)(n63,259,n17)(n63,260,n20)(n63,262,n20)(n63,264,n23)(n63,266,n25)(n63,269,n27)(n63,270,n30)(n63,272,n30)(n63,273,n33)(n63,274,n35)(n63,277,n37)(n63,278,n39)(n63,279,n41)(n63,281,n43)(n63,282,n46)(n63,300,n46)(n63,303,n49)(n63,309,n51)(n63,311,n54)(n63,327,n51)(n63,334,n49)(n63,336,n46)(n63,340,n46)(n63,353,n44)(n63,360,n37)(n63,361,n35)(n63,365,n28)(n64,0,n4)(n64,250,n4)(n64,251,n8)(n64,252,n8)(n64,254,n12)(n64,257,n14)(n64,258,n14)(n64,259,n17)(n64,260,n20)(n64,262,n20)(n64,264,n23)(n64,266,n25)(n64,269,n27)(n64,270,n30)(n64,272,n30)(n64,273,n33)(n64,274,n35)(n64,277,n37)(n64,278,n39)(n64,279,n41)(n64,281,n43)(n64,282,n46)(n64,300,n46)(n64,303,n49)(n64,309,n51)(n64,311,n54)(n64,327,n51)(n64,334,n46)(n64,336,n46)(n64,340,n46)(n64,353,n43)(n64,360,n35)(n64,361,n33)(n64,365,n27)(n64,366,n27)(n64,367,n27)(n65,0,n4)(n65,250,n4)(n65,251,n8)(n65,252,n8)(n65,254,n12)(n65,257,n14)(n65,258,n14)(n65,259,n17)(n65,260,n20)(n65,262,n20)(n65,264,n23)(n65,266,n25)(n65,269,n27)(n65,270,n30)(n65,272,n30)(n65,273,n33)(n65,274,n35)(n65,277,n37)(n65,278,n39)(n65,279,n41)(n65,281,n43)(n65,282,n46)(n65,300,n46)(n65,303,n49)(n65,309,n49)(n65,311,n49)(n65,327,n46)(n65,334,n39)(n65,336,n37)(n65,340,n30)(n65,353,n17)(n65,360,n8)(n65,361,n6)(n65,365,n4)(n65,366,n4)(n65,367,n4)(n66,0,n4)(n66,250,n4)(n66,251,n8)(n66,252,n8)(n66,254,n12)(n66,257,n14)(n66,258,n14)(n66,259,n17)(n66,260,n20)(n66,262,n20)(n66,264,n23)(n66,266,n25)(n66,269,n27)(n66,270,n30)(n66,272,n30)(n66,273,n33)(n66,274,n35)(n66,277,n37)(n66,278,n39)(n66,279,n41)(n66,281,n43)(n66,282,n46)(n66,300,n46)(n66,303,n46)(n66,309,n46)(n66,311,n46)(n66,327,n37)(n66,334,n27)(n66,336,n25)(n66,340,n20)(n66,353,n4)(n66,360,n4)(n66,361,n4)(n66,365,n4)(n66,366,n4)(n66,367,n4)(n66,389,n4)(n67,0,n4)(n67,250,n4)(n67,251,n8)(n67,252,n8)(n67,254,n12)(n67,257,n14)(n67,258,n14)(n67,259,n17)(n67,260,n20)(n67,262,n20)(n67,264,n23)(n67,266,n25)(n67,269,n27)(n67,270,n30)(n67,272,n30)(n67,273,n33)(n67,274,n35)(n67,277,n37)(n67,278,n39)(n67,279,n41)(n67,281,n43)(n67,282,n46)(n67,300,n46)(n67,303,n46)(n67,309,n46)(n67,311,n46)(n67,327,n35)(n67,334,n27)(n67,336,n25)(n67,340,n20)(n67,353,n4)(n67,360,n4)(n67,361,n4)(n67,365,n4)(n67,366,n4)(n67,367,n4)(n67,389,n4)(n67,399,n4)(n68,0,n4)(n68,250,n4)(n68,251,n8)(n68,252,n8)(n68,254,n12)(n68,257,n14)(n68,258,n14)(n68,259,n17)(n68,260,n20)(n68,262,n20)(n68,264,n23)(n68,266,n25)(n68,269,n27)(n68,270,n30)(n68,272,n30)(n68,273,n33)(n68,274,n35)(n68,277,n37)(n68,278,n39)(n68,279,n41)(n68,281,n43)(n68,282,n46)(n68,300,n46)(n68,303,n46)(n68,309,n43)(n68,311,n39)(n68,327,n20)(n68,334,n12)(n68,336,n10)(n68,340,n4)(n68,353,n4)(n68,360,n4)(n68,361,n4)(n68,365,n4)(n68,366,n4)(n68,367,n4)(n68,389,n4)(n68,399,n4)(n68,400,n4)(n69,0,n4)(n69,250,n4)(n69,251,n8)(n69,252,n8)(n69,254,n12)(n69,257,n14)(n69,258,n14)(n69,259,n17)(n69,260,n20)(n69,262,n20)(n69,264,n23)(n69,266,n25)(n69,269,n27)(n69,270,n30)(n69,272,n30)(n69,273,n33)(n69,274,n35)(n69,277,n37)(n69,278,n39)(n69,279,n41)(n69,281,n43)(n69,282,n46)(n69,300,n46)(n69,303,n46)(n69,309,n37)(n69,311,n37)(n69,327,n17)(n69,334,n8)(n69,336,n4)(n69,340,n4)(n69,353,n4)(n69,360,n4)(n69,361,n4)(n69,365,n4)(n69,366,n4)(n69,367,n4)(n69,389,n4)(n69,399,n4)(n69,400,n4)(n69,412,n4)(n69,415,n4)(n70,0,n4)(n70,250,n4)(n70,251,n8)(n70,252,n8)(n70,254,n12)(n70,257,n14)(n70,258,n14)(n70,259,n17)(n70,260,n20)(n70,262,n20)(n70,264,n23)(n70,266,n25)(n70,269,n27)(n70,270,n30)(n70,272,n30)(n70,273,n33)(n70,274,n35)(n70,277,n37)(n70,278,n39)(n70,279,n41)(n70,281,n43)(n70,282,n46)(n70,300,n30)(n70,303,n27)(n70,309,n23)(n70,311,n20)(n70,327,n4)(n70,334,n4)(n70,336,n4)(n70,340,n4)(n70,353,n4)(n70,360,n4)(n70,361,n4)(n70,365,n4)(n70,366,n4)(n70,367,n4)(n70,389,n4)(n70,399,n4)(n70,400,n4)(n70,412,n4)(n70,415,n4)(n71,0,n4)(n71,250,n4)(n71,251,n8)(n71,252,n8)(n71,254,n12)(n71,257,n14)(n71,258,n14)(n71,259,n17)(n71,260,n20)(n71,262,n20)(n71,264,n23)(n71,266,n25)(n71,269,n27)(n71,270,n30)(n71,272,n30)(n71,273,n33)(n71,274,n35)(n71,277,n37)(n71,278,n37)(n71,279,n35)(n71,281,n30)(n71,282,n30)(n71,300,n10)(n71,303,n4)(n71,309,n4)(n71,311,n4)(n71,327,n4)(n71,334,n4)(n71,336,n4)(n71,340,n4)(n71,353,n4)(n71,360,n4)(n71,361,n4)(n71,365,n4)(n71,366,n4)(n71,367,n4)(n71,389,n4)(n71,399,n4)(n71,400,n4)(n71,412,n4)(n71,415,n4)(n71,429,n4)(n72,0,n4)(n72,250,n4)(n72,251,n8)(n72,252,n8)(n72,254,n12)(n72,257,n14)(n72,258,n14)(n72,259,n17)(n72,260,n20)(n72,262,n20)(n72,264,n23)(n72,266,n25)(n72,269,n27)(n72,270,n30)(n72,272,n30)(n72,273,n33)(n72,274,n35)(n72,277,n35)(n72,278,n33)(n72,279,n30)(n72,281,n28)(n72,282,n27)(n72,300,n6)(n72,303,n4)(n72,309,n4)(n72,311,n4)(n72,327,n4)(n72,334,n4)(n72,336,n4)(n72,340,n4)(n72,353,n4)(n72,360,n4)(n72,361,n4)(n72,365,n4)(n72,366,n4)(n72,367,n4)(n72,389,n4)(n72,399,n4)(n72,400,n4)(n72,412,n4)(n72,415,n4)(n72,429,n4)(n72,448,n4)(n73,0,n4)(n73,250,n4)(n73,251,n8)(n73,252,n8)(n73,254,n12)(n73,257,n14)(n73,258,n14)(n73,259,n17)(n73,260,n20)(n73,262,n20)(n73,264,n23)(n73,266,n25)(n73,269,n27)(n73,270,n30)(n73,272,n27)(n73,273,n27)(n73,274,n27)(n73,277,n23)(n73,278,n23)(n73,279,n20)(n73,281,n18)(n73,282,n17)(n73,300,n4)(n73,303,n4)(n73,309,n4)(n73,311,n4)(n73,327,n4)(n73,334,n4)(n73,336,n4)(n73,340,n4)(n73,353,n4)(n73,360,n4)(n73,361,n4)(n73,365,n4)(n73,366,n4)(n73,367,n4)(n73,389,n4)(n73,399,n4)(n73,400,n4)(n73,412,n4)(n73,415,n4)(n73,429,n4)(n73,448,n4)(n73,450,n4)(n74,0,n4)(n74,250,n4)(n74,251,n8)(n74,252,n8)(n74,254,n12)(n74,257,n14)(n74,258,n14)(n74,259,n17)(n74,260,n20)(n74,262,n20)(n74,264,n23)(n74,266,n25)(n74,269,n27)(n74,270,n27)(n74,272,n25)(n74,273,n23)(n74,274,n23)(n74,277,n18)(n74,278,n17)(n74,279,n14)(n74,281,n12)(n74,282,n12)(n74,300,n4)(n74,303,n4)(n74,309,n4)(n74,311,n4)(n74,327,n4)(n74,334,n4)(n74,336,n4)(n74,340,n4)(n74,353,n4)(n74,360,n4)(n74,361,n4)(n74,365,n4)(n74,366,n4)(n74,367,n4)(n74,389,n4)(n74,399,n4)(n74,400,n4)(n74,412,n4)(n74,415,n4)(n74,429,n4)(n74,448,n4)(n74,450,n4)(n74,460,n4)(n75,0,n4)(n75,250,n4)(n75,251,n8)(n75,252,n8)(n75,254,n12)(n75,257,n14)(n75,258,n14)(n75,259,n17)(n75,260,n20)(n75,262,n20)(n75,264,n23)(n75,266,n25)(n75,269,n20)(n75,270,n20)(n75,272,n17)(n75,273,n14)(n75,274,n12)(n75,277,n10)(n75,278,n10)(n75,279,n8)(n75,281,n4)(n75,282,n4)(n75,300,n4)(n75,303,n4)(n75,309,n4)(n75,311,n4)(n75,327,n4)(n75,334,n4)(n75,336,n4)(n75,340,n4)(n75,353,n4)(n75,360,n4)(n75,361,n4)(n75,365,n4)(n75,366,n4)(n75,367,n4)(n75,389,n4)(n75,399,n4)(n75,400,n4)(n75,412,n4)(n75,415,n4)(n75,429,n4)(n75,448,n4)(n75,450,n4)(n75,460,n4)(n75,464,n4)(n76,0,n4)(n76,250,n4)(n76,251,n8)(n76,252,n8)(n76,254,n12)(n76,257,n14)(n76,258,n14)(n76,259,n17)(n76,260,n20)(n76,262,n20)(n76,264,n23)(n76,266,n20)(n76,269,n14)(n76,270,n12)(n76,272,n12)(n76,273,n10)(n76,274,n10)(n76,277,n4)(n76,278,n4)(n76,279,n4)(n76,281,n4)(n76,282,n4)(n76,300,n4)(n76,303,n4)(n76,309,n4)(n76,311,n4)(n76,327,n4)(n76,334,n4)(n76,336,n4)(n76,340,n4)(n76,353,n4)(n76,360,n4)(n76,361,n4)(n76,365,n4)(n76,366,n4)(n76,367,n4)(n76,389,n4)(n76,399,n4)(n76,400,n4)(n76,412,n4)(n76,415,n4)(n76,429,n4)(n76,448,n4)(n76,450,n4)(n76,460,n4)(n76,464,n4)(n76,470,n4)(n77,0,n4)(n77,250,n4)(n77,251,n8)(n77,252,n8)(n77,254,n12)(n77,257,n14)(n77,258,n14)(n77,259,n14)(n77,260,n12)(n77,262,n12)(n77,264,n10)(n77,266,n6)(n77,269,n4)(n77,270,n4)(n77,272,n4)(n77,273,n4)(n77,274,n4)(n77,277,n4)(n77,278,n4)(n77,279,n4)(n77,281,n4)(n77,282,n4)(n77,300,n4)(n77,303,n4)(n77,309,n4)(n77,311,n4)(n77,327,n4)(n77,334,n4)(n77,336,n4)(n77,340,n4)(n77,353,n4)(n77,360,n4)(n77,361,n4)(n77,365,n4)(n77,366,n4)(n77,367,n4)(n77,389,n4)(n77,399,n4)(n77,400,n4)(n77,412,n4)(n77,415,n4)(n77,429,n4)(n77,448,n4)(n77,450,n4)(n77,460,n4)(n77,464,n4)(n77,470,n4)(n77,474,n4)(n78,0,n4)(n78,250,n4)(n78,251,n8)(n78,252,n8)(n78,254,n12)(n78,257,n10)(n78,258,n8)(n78,259,n6)(n78,260,n4)(n78,262,n4)(n78,264,n4)(n78,266,n4)(n78,269,n4)(n78,270,n4)(n78,272,n4)(n78,273,n4)(n78,274,n4)(n78,277,n4)(n78,278,n4)(n78,279,n4)(n78,281,n4)(n78,282,n4)(n78,300,n4)(n78,303,n4)(n78,309,n4)(n78,311,n4)(n78,327,n4)(n78,334,n4)(n78,336,n4)(n78,340,n4)(n78,353,n4)(n78,360,n4)(n78,361,n4)(n78,365,n4)(n78,366,n4)(n78,367,n4)(n78,389,n4)(n78,399,n4)(n78,400,n4)(n78,412,n4)(n78,415,n4)(n78,429,n4)(n78,448,n4)(n78,450,n4)(n78,460,n4)(n78,464,n4)(n78,470,n4)(n78,474,n4)(n78,484,n4)(n79,0,n4)(n79,250,n4)(n79,251,n8)(n79,252,n8)(n79,254,n12)(n79,257,n8)(n79,258,n6)(n79,259,n4)(n79,260,n4)(n79,262,n4)(n79,264,n4)(n79,266,n4)(n79,269,n4)(n79,270,n4)(n79,272,n4)(n79,273,n4)(n79,274,n4)(n79,277,n4)(n79,278,n4)(n79,279,n4)(n79,281,n4)(n79,282,n4)(n79,300,n4)(n79,303,n4)(n79,309,n4)(n79,311,n4)(n79,327,n4)(n79,334,n4)(n79,336,n4)(n79,340,n4)(n79,353,n4)(n79,360,n4)(n79,361,n4)(n79,365,n4)(n79,366,n4)(n79,367,n4)(n79,389,n4)(n79,399,n4)(n79,400,n4)(n79,412,n4)(n79,415,n4)(n79,429,n4)(n79,448,n4)(n79,450,n4)(n79,460,n4)(n79,464,n4)(n79,470,n4)(n79,474,n4)(n79,484,n4)(n79,491,n4) </transitions>
      </mdd>
      <args> b[0][] </args>
      <args> b[1][] </args>
      <args> b[2][] </args>
      <args> b[3][] </args>
      <args> b[4][] </args>
      <args> b[5][] </args>
      <args> b[6][] </args>
      <args> b[7][] </args>
      <args> b[8][] </args>
      <args> b[9][] </args>
      <args> b[10][] </args>
      <args> b[11][] </args>
      <args> b[12][] </args>
      <args> b[13][] </args>
      <args> b[14][] </args>
      <args> b[15][] </args>
      <args> b[16][] </args>
      <args> b[17][] </args>
      <args> b[18][] </args>
      <args> b[19][] </args>
      <args> b[20][] </args>
      <args> b[21][] </args>
      <args> b[22][] </args>
      <args> b[23][] </args>
    </group>
    <cardinality>
      <list> b[][] </list>
      <values> 0 250 251 252 254 257 258 259 260 262 264 266 269 270 272 273 274 277 278 279 281 282 300 303 309 311 327 334 336 340 353 360 361 365 366 367 389 399 400 412 415 429 448 450 460 464 470 474 484 491 492 </values>
      <occurs> 12 1 2 1 2 2 1 1 2 1 1 1 1 2 1 1 1 1 1 1 1 2 1 1 1 2 1 1 2 1 1 1 1 1 1 2 1 1 1 1 2 1 1 1 1 1 1 1 1 1 1 </occurs>
    </cardinality>
    <lex class="symmetryBreaking">
      <list> b[0][] </list>
      <list> b[1][] </list>
      <list> b[2][] </list>
      <list> b[3][] </list>
      <list> b[4][] </list>
      <list> b[5][] </list>
      <list> b[6][] </list>
      <list> b[7][] </list>
      <list> b[8][] </list>
      <list> b[9][] </list>
      <list> b[10][] </list>
      <list> b[11][] </list>
      <list> b[12][] </list>
      <list> b[13][] </list>
      <list> b[14][] </list>
      <list> b[15][] </list>
      <list> b[16][] </list>
      <list> b[17][] </list>
      <list> b[18][] </list>
      <list> b[19][] </list>
      <list> b[20][] </list>
      <list> b[21][] </list>
      <list> b[22][] </list>
      <list> b[23][] </list>
      <operator> ge </operator>
    </lex>
    <count>
      <list> b[][0] </list>
      <values> 0 </values>
      <condition> (eq,x) </condition>
    </count>
  </constraints>
  <objectives>
    <maximize> x </maximize>
  </objectives>
</instance>
